unsat
(:added-eqs                       1457264
 :arith-eq-adapter                2983
 :arith-bound-propagations-lp     3058
 :arith-conflicts                 2496
 :arith-diseq                     109631
 :arith-fixed-eqs                 176928
 :arith-gcd-calls                 3
 :arith-grobner-calls             513
 :arith-grobner-conflicts         384
 :arith-horner-calls              70
 :arith-horner-conflicts          20
 :arith-horner-cross-nested-forms 15623
 :arith-lower                     354928
 :arith-make-feasible             126068
 :arith-max-columns               6347
 :arith-max-rows                  2597
 :arith-nla-add-bounds            119
 :arith-nla-lemmas                439
 :arith-nla-propagate-bounds      1144
 :arith-nla-propagate-eq          161538
 :arith-nra-calls                 28
 :arith-offset-eqs                511418
 :arith-patches                   3
 :arith-patches-success           3
 :arith-upper                     584176
 :binary-propagations             1437641
 :cnf-encoding-aux-vars           1030
 :conflicts                       1718
 :decisions                       891797
 :del-clause                      5038
 :elim-unconstrained              1187
 :final-checks                    925
 :max-memory                      138.72
 :memory                          99.27
 :minimized-lits                  1455
 :mk-bool-var                     17440
 :mk-clause                       10039
 :mk-clause-binary                116918
 :nlsat-conflicts                 55477
 :nlsat-decisions                 2376794
 :nlsat-propagations              3952415
 :nlsat-restarts                  4
 :nlsat-stages                    277850
 :num-allocs                      14796967841.00
 :num-checks                      2
 :propagations                    1746256
 :restarts                        14
 :rlimit-count                    28538207
 :sat-mk-clause-2ary              17028
 :sat-mk-clause-nary              26170
 :sat-mk-var                      12463
 :solve-eqs-elim-vars             703
 :solve-eqs-steps                 3675
 :time                            25.96
 :total-time                      26.01)
